networks/zoo_122_3660/zoo_122_3660.txt
Number of groups: 66
Flow 56: {1 36} {36 57} {57 118} 
Flow 60: {47 61} {61 122} 
Flow 64: {2 5} {5 66} 
Flow 113: {38 16} {16 54} {54 115} 
Flow 152: {3 36} {36 15} {15 50} {50 33} {33 94} 
Flow 234: {4 38} {38 41} {41 55} {55 116} 
Flow 285: {5 11} {11 46} {46 107} 
Flow 344: {6 56} {56 45} {45 106} 
Flow 370: {7 46} {46 11} {11 72} 
Flow 431: {8 5} {5 56} {56 12} {12 73} 
Flow 501: {23 22} {22 83} 
Flow 502: {9 23} {23 84} 
Flow 543: {10 59} {59 38} {38 36} {36 3} {3 64} 
Flow 674: {12 56} {56 15} {15 76} 
Flow 679: {56 11} {11 22} {22 20} {20 81} 
Flow 729: {13 21} {21 22} {22 23} {23 9} {9 70} 
Flow 819: {14 30} {30 60} {60 40} {40 101} 
Flow 887: {50 48} {48 109} 
Flow 984: {17 35} {35 36} {36 38} {38 25} {25 86} 
Flow 1057: {57 38} {38 99} 
Flow 1181: {20 22} {22 19} {19 42} {42 103} 
Flow 1244: {22 11} {11 45} 
Flow 1316: {11 56} {56 38} {38 57} 
Flow 1401: {24 22} {22 21} {21 82} 
Flow 1499: {25 38} {38 40} {40 60} 
Flow 1504: {26 38} {38 4} {4 65} 
Flow 1588: {27 15} {15 56} {56 29} {29 90} 
Flow 1622: {28 56} {56 5} {5 2} {2 63} 
Flow 1686: {29 56} {56 6} {6 67} 
Flow 1857: {31 30} {30 15} {15 58} {58 119} 
Flow 1898: {35 18} {18 57} {57 39} {39 100} 
Flow 1930: {59 10} {10 71} 
Flow 1962: {33 50} {50 43} {43 104} 
Flow 2012: {34 32} {32 93} 
Flow 2016: {32 35} {35 37} 
Flow 2179: {37 38} {38 56} {56 19} {19 80} 
Flow 2187: {37 35} {35 15} {15 27} {27 88} 
Flow 2191: {15 30} {30 31} {31 92} 
Flow 2298: {39 57} {57 18} {18 79} 
Flow 2306: {39 38} {38 26} {26 87} 
Flow 2379: {40 38} {38 39} 
Flow 2519: {42 19} {19 56} {56 60} {60 121} 
Flow 2563: {43 50} {50 19} {19 44} {44 105} 
Flow 2629: {44 19} {19 50} {50 111} 
Flow 2647: {45 56} {56 7} {7 68} 
Flow 2648: {45 11} {11 5} {5 8} {8 69} 
Flow 2654: {30 14} {14 75} 
Flow 2755: {46 7} {7 56} {56 117} 
Flow 2833: {21 13} {13 74} 
Flow 2870: {48 50} {50 51} {51 112} 
Flow 2927: {49 50} {50 15} {15 47} {47 108} 
Flow 2964: {19 22} {22 24} {24 85} 
Flow 3049: {51 50} {50 49} {49 110} 
Flow 3097: {52 38} {38 37} {37 98} 
Flow 3136: {53 36} {36 16} {16 77} 
Flow 3181: {16 36} {36 1} {1 62} 
Flow 3214: {36 35} {35 32} {32 34} {34 95} 
Flow 3238: {54 16} {16 38} {38 59} {59 120} 
Flow 3270: {41 60} {60 30} {30 91} 
Flow 3292: {55 41} {41 38} {38 52} {52 113} 
Flow 3377: {18 35} {35 17} {17 78} 
Flow 3396: {57 36} {36 97} 
Flow 3455: {58 15} {15 35} {35 96} 
Flow 3568: {60 56} {56 28} {28 89} 
Flow 3581: {60 41} {41 102} 
Flow 3653: {61 47} {47 15} {15 36} {36 53} {53 114} 
Time taken running everything: 618 seconds
