networks/zoo_122_3660/standard/zoo_122_3660.sol
<?xml version = "1.0" encoding="UTF-8" standalone="yes"?>
<CPLEXSolution version="1.2">
 <header
   problemName="networks/zoo_122_3660/zoo_122_3660.lp"
   solutionName="incumbent"
   solutionIndex="-1"
   objectiveValue="66"
   solutionTypeValue="3"
   solutionTypeString="primal"
   solutionStatusValue="107"
   solutionStatusString="time limit exceeded"
   solutionMethodString="mip"
   primalFeasible="1"
   dualFeasible="0"
   MIPNodes="6148"
   MIPIterations="732223"
   writeLevel="3"/>
 <quality
   epInt="1.0000000000000001e-05"
   epRHS="9.9999999999999995e-07"
   maxIntInfeas="0"
   maxPrimalInfeas="8.8817841970012523e-16"
   maxX="4"
   maxSlack="10"/>
 <variables>
  <variable name="Y(56,57)" index="6766" value="1"/>
  <variable name="Y(60,61)" index="7258" value="1"/>
  <variable name="Y(64,5)" index="7690" value="1"/>
  <variable name="Y(113,54)" index="13717" value="1"/>
  <variable name="Y(152,33)" index="18454" value="1"/>
  <variable name="Y(234,55)" index="28480" value="1"/>
  <variable name="Y(285,46)" index="34693" value="1"/>
  <variable name="Y(344,45)" index="41890" value="1"/>
  <variable name="Y(370,11)" index="45028" value="1"/>
  <variable name="Y(431,12)" index="52471" value="1"/>
  <variable name="Y(501,22)" index="61021" value="1"/>
  <variable name="Y(502,23)" index="61144" value="1"/>
  <variable name="Y(543,3)" index="66126" value="1"/>
  <variable name="Y(674,15)" index="82120" value="1"/>
  <variable name="Y(679,20)" index="82735" value="1"/>
  <variable name="Y(729,9)" index="88824" value="1"/>
  <variable name="Y(819,40)" index="99835" value="1"/>
  <variable name="Y(887,48)" index="108139" value="1"/>
  <variable name="Y(984,25)" index="119950" value="1"/>
  <variable name="Y(1057,38)" index="128869" value="1"/>
  <variable name="Y(1181,42)" index="144001" value="1"/>
  <variable name="Y(1244,11)" index="151656" value="1"/>
  <variable name="Y(1316,38)" index="160467" value="1"/>
  <variable name="Y(1401,21)" index="170820" value="1"/>
  <variable name="Y(1499,40)" index="182795" value="1"/>
  <variable name="Y(1504,4)" index="183369" value="1"/>
  <variable name="Y(1588,29)" index="193642" value="1"/>
  <variable name="Y(1622,2)" index="197763" value="1"/>
  <variable name="Y(1686,6)" index="205575" value="1"/>
  <variable name="Y(1857,58)" index="226489" value="1"/>
  <variable name="Y(1898,39)" index="231472" value="1"/>
  <variable name="Y(1930,10)" index="235347" value="1"/>
  <variable name="Y(1962,43)" index="239284" value="1"/>
  <variable name="Y(2012,32)" index="245373" value="1"/>
  <variable name="Y(2016,35)" index="245864" value="1"/>
  <variable name="Y(2179,19)" index="265734" value="1"/>
  <variable name="Y(2187,27)" index="266718" value="1"/>
  <variable name="Y(2191,31)" index="267210" value="1"/>
  <variable name="Y(2298,18)" index="280251" value="1"/>
  <variable name="Y(2306,26)" index="281235" value="1"/>
  <variable name="Y(2379,38)" index="290153" value="1"/>
  <variable name="Y(2519,60)" index="307255" value="1"/>
  <variable name="Y(2563,44)" index="312607" value="1"/>
  <variable name="Y(2629,50)" index="320665" value="1"/>
  <variable name="Y(2647,7)" index="322818" value="1"/>
  <variable name="Y(2648,8)" index="322941" value="1"/>
  <variable name="Y(2654,14)" index="323679" value="1"/>
  <variable name="Y(2755,56)" index="336043" value="1"/>
  <variable name="Y(2833,13)" index="345516" value="1"/>
  <variable name="Y(2870,51)" index="350068" value="1"/>
  <variable name="Y(2927,47)" index="357018" value="1"/>
  <variable name="Y(2964,24)" index="361509" value="1"/>
  <variable name="Y(3049,49)" index="371904" value="1"/>
  <variable name="Y(3097,37)" index="377748" value="1"/>
  <variable name="Y(3136,16)" index="382485" value="1"/>
  <variable name="Y(3181,1)" index="387960" value="1"/>
  <variable name="Y(3214,34)" index="392019" value="1"/>
  <variable name="Y(3238,59)" index="394972" value="1"/>
  <variable name="Y(3270,30)" index="398847" value="1"/>
  <variable name="Y(3292,52)" index="401553" value="1"/>
  <variable name="Y(3377,17)" index="411888" value="1"/>
  <variable name="Y(3396,36)" index="414225" value="1"/>
  <variable name="Y(3455,35)" index="421422" value="1"/>
  <variable name="Y(3568,28)" index="435201" value="1"/>
  <variable name="Y(3581,41)" index="436800" value="1"/>
  <variable name="Y(3653,53)" index="445596" value="1"/>
  <variable name="X(1,36,56)" index="446575" value="1"/>
  <variable name="X(1,62,3181)" index="453360" value="1"/>
  <variable name="X(2,5,64)" index="453903" value="1"/>
  <variable name="X(2,63,1622)" index="459121" value="1"/>
  <variable name="X(3,36,152)" index="461311" value="1"/>
  <variable name="X(3,64,543)" index="465362" value="1"/>
  <variable name="X(4,38,234)" index="468713" value="1"/>
  <variable name="X(4,65,1504)" index="473643" value="1"/>
  <variable name="X(5,2,1622)" index="477421" value="1"/>
  <variable name="X(5,8,2648)" index="482107" value="1"/>
  <variable name="X(5,11,285)" index="483404" value="1"/>
  <variable name="X(5,56,431)" index="487210" value="1"/>
  <variable name="X(5,66,64)" index="490503" value="1"/>
  <variable name="X(6,56,344)" index="494443" value="1"/>
  <variable name="X(6,67,1686)" index="499445" value="1"/>
  <variable name="X(7,46,370)" index="501789" value="1"/>
  <variable name="X(7,56,2755)" index="507834" value="1"/>
  <variable name="X(7,68,2647)" index="511386" value="1"/>
  <variable name="X(8,5,431)" index="512830" value="1"/>
  <variable name="X(8,69,2648)" index="518707" value="1"/>
  <variable name="X(9,23,502)" index="520221" value="1"/>
  <variable name="X(9,70,729)" index="524108" value="1"/>
  <variable name="X(10,59,543)" index="527582" value="1"/>
  <variable name="X(10,71,1930)" index="532629" value="1"/>
  <variable name="X(11,5,2648)" index="537007" value="1"/>
  <variable name="X(11,22,679)" index="538698" value="1"/>
  <variable name="X(11,45,1244)" index="542923" value="1"/>
  <variable name="X(11,46,285)" index="545624" value="1"/>
  <variable name="X(11,56,1316)" index="550315" value="1"/>
  <variable name="X(11,72,370)" index="553029" value="1"/>
  <variable name="X(12,56,674)" index="556993" value="1"/>
  <variable name="X(12,73,431)" index="560410" value="1"/>
  <variable name="X(13,21,729)" index="564368" value="1"/>
  <variable name="X(13,74,2833)" index="570132" value="1"/>
  <variable name="X(14,30,819)" index="571778" value="1"/>
  <variable name="X(14,75,2654)" index="577273" value="1"/>
  <variable name="X(15,27,2187)" index="580466" value="1"/>
  <variable name="X(15,30,2191)" index="584130" value="1"/>
  <variable name="X(15,35,3455)" index="589054" value="1"/>
  <variable name="X(15,36,3653)" index="592912" value="1"/>
  <variable name="X(15,47,2927)" index="595846" value="1"/>
  <variable name="X(15,50,152)" index="596731" value="1"/>
  <variable name="X(15,56,1588)" index="601827" value="1"/>
  <variable name="X(15,58,1857)" index="605756" value="1"/>
  <variable name="X(15,76,674)" index="608233" value="1"/>
  <variable name="X(16,36,3181)" index="614400" value="1"/>
  <variable name="X(16,38,3238)" index="618117" value="1"/>
  <variable name="X(16,54,113)" index="618652" value="1"/>
  <variable name="X(16,77,3136)" index="625335" value="1"/>
  <variable name="X(17,35,984)" index="626843" value="1"/>
  <variable name="X(17,78,3377)" index="632896" value="1"/>
  <variable name="X(18,35,3377)" index="636556" value="1"/>
  <variable name="X(18,57,1898)" index="638737" value="1"/>
  <variable name="X(18,79,2298)" index="642797" value="1"/>
  <variable name="X(19,22,2964)" index="647123" value="1"/>
  <variable name="X(19,42,1181)" index="649000" value="1"/>
  <variable name="X(19,44,2563)" index="654042" value="1"/>
  <variable name="X(19,50,2629)" index="657768" value="1"/>
  <variable name="X(19,56,2519)" index="661318" value="1"/>
  <variable name="X(19,80,2179)" index="664638" value="1"/>
  <variable name="X(20,22,1181)" index="667300" value="1"/>
  <variable name="X(20,81,679)" index="670458" value="1"/>
  <variable name="X(21,13,2833)" index="676272" value="1"/>
  <variable name="X(21,22,729)" index="677828" value="1"/>
  <variable name="X(21,82,1401)" index="682160" value="1"/>
  <variable name="X(22,11,1244)" index="685663" value="1"/>
  <variable name="X(22,19,1181)" index="689260" value="1"/>
  <variable name="X(22,20,679)" index="692418" value="1"/>
  <variable name="X(22,21,1401)" index="696800" value="1"/>
  <variable name="X(22,23,729)" index="699788" value="1"/>
  <variable name="X(22,24,2964)" index="705683" value="1"/>
  <variable name="X(22,83,501)" index="706880" value="1"/>
  <variable name="X(23,9,729)" index="710768" value="1"/>
  <variable name="X(23,22,501)" index="714200" value="1"/>
  <variable name="X(23,84,502)" index="717861" value="1"/>
  <variable name="X(24,22,1401)" index="722420" value="1"/>
  <variable name="X(24,85,2964)" index="727643" value="1"/>
  <variable name="X(25,38,1499)" index="729838" value="1"/>
  <variable name="X(25,86,984)" index="732983" value="1"/>
  <variable name="X(26,38,1504)" index="737163" value="1"/>
  <variable name="X(26,87,2306)" index="741625" value="1"/>
  <variable name="X(27,15,1588)" index="744567" value="1"/>
  <variable name="X(27,88,2187)" index="748826" value="1"/>
  <variable name="X(28,56,1622)" index="751921" value="1"/>
  <variable name="X(28,89,3568)" index="757527" value="1"/>
  <variable name="X(29,56,1686)" index="759305" value="1"/>
  <variable name="X(29,90,1588)" index="762867" value="1"/>
  <variable name="X(30,14,2654)" index="767593" value="1"/>
  <variable name="X(30,15,1857)" index="770456" value="1"/>
  <variable name="X(30,31,2191)" index="774450" value="1"/>
  <variable name="X(30,60,819)" index="776738" value="1"/>
  <variable name="X(30,91,3270)" index="782849" value="1"/>
  <variable name="X(31,30,1857)" index="785096" value="1"/>
  <variable name="X(31,92,2191)" index="789090" value="1"/>
  <variable name="X(32,34,3214)" index="793773" value="1"/>
  <variable name="X(32,35,2016)" index="796235" value="1"/>
  <variable name="X(32,93,2012)" index="799891" value="1"/>
  <variable name="X(33,50,1962)" index="803501" value="1"/>
  <variable name="X(33,94,152)" index="805351" value="1"/>
  <variable name="X(34,32,2012)" index="810871" value="1"/>
  <variable name="X(34,95,3214)" index="815733" value="1"/>
  <variable name="X(35,15,2187)" index="818366" value="1"/>
  <variable name="X(35,17,3377)" index="823216" value="1"/>
  <variable name="X(35,18,1898)" index="825397" value="1"/>
  <variable name="X(35,32,3214)" index="830373" value="1"/>
  <variable name="X(35,36,984)" index="831803" value="1"/>
  <variable name="X(35,37,2016)" index="836495" value="1"/>
  <variable name="X(35,96,3455)" index="841594" value="1"/>
  <variable name="X(36,1,3181)" index="844980" value="1"/>
  <variable name="X(36,3,543)" index="846002" value="1"/>
  <variable name="X(36,15,152)" index="849271" value="1"/>
  <variable name="X(36,16,3136)" index="855915" value="1"/>
  <variable name="X(36,35,3214)" index="859653" value="1"/>
  <variable name="X(36,38,984)" index="861083" value="1"/>
  <variable name="X(36,53,3653)" index="867412" value="1"/>
  <variable name="X(36,57,56)" index="867475" value="1"/>
  <variable name="X(36,97,3396)" index="874475" value="1"/>
  <variable name="X(37,35,2187)" index="876926" value="1"/>
  <variable name="X(37,38,2179)" index="880578" value="1"/>
  <variable name="X(37,98,3097)" index="885156" value="1"/>
  <variable name="X(38,4,1504)" index="887223" value="1"/>
  <variable name="X(38,16,113)" index="889492" value="1"/>
  <variable name="X(38,25,984)" index="894023" value="1"/>
  <variable name="X(38,26,2306)" index="899005" value="1"/>
  <variable name="X(38,36,543)" index="900902" value="1"/>
  <variable name="X(38,37,3097)" index="907116" value="1"/>
  <variable name="X(38,39,2379)" index="910058" value="1"/>
  <variable name="X(38,40,1499)" index="912838" value="1"/>
  <variable name="X(38,41,234)" index="915233" value="1"/>
  <variable name="X(38,52,3292)" index="921951" value="1"/>
  <variable name="X(38,56,2179)" index="924498" value="1"/>
  <variable name="X(38,57,1316)" index="927295" value="1"/>
  <variable name="X(38,59,3238)" index="932877" value="1"/>
  <variable name="X(38,99,1057)" index="934356" value="1"/>
  <variable name="X(39,38,2306)" index="939265" value="1"/>
  <variable name="X(39,57,2298)" index="942917" value="1"/>
  <variable name="X(39,100,1898)" index="946177" value="1"/>
  <variable name="X(40,38,2379)" index="950318" value="1"/>
  <variable name="X(40,60,1499)" index="953098" value="1"/>
  <variable name="X(40,101,819)" index="956078" value="1"/>
  <variable name="X(41,38,3292)" index="962211" value="1"/>
  <variable name="X(41,55,234)" index="962813" value="1"/>
  <variable name="X(41,60,3270)" index="969509" value="1"/>
  <variable name="X(41,102,3581)" index="973480" value="1"/>
  <variable name="X(42,19,2519)" index="976078" value="1"/>
  <variable name="X(42,103,1181)" index="978400" value="1"/>
  <variable name="X(43,50,2563)" index="983442" value="1"/>
  <variable name="X(43,104,1962)" index="986501" value="1"/>
  <variable name="X(44,19,2629)" index="990828" value="1"/>
  <variable name="X(44,105,2563)" index="994422" value="1"/>
  <variable name="X(45,11,2648)" index="998167" value="1"/>
  <variable name="X(45,56,2647)" index="1001826" value="1"/>
  <variable name="X(45,106,344)" index="1003183" value="1"/>
  <variable name="X(46,7,2755)" index="1009254" value="1"/>
  <variable name="X(46,11,370)" index="1010529" value="1"/>
  <variable name="X(46,107,285)" index="1014104" value="1"/>
  <variable name="X(47,15,3653)" index="1021132" value="1"/>
  <variable name="X(47,61,60)" index="1021199" value="1"/>
  <variable name="X(47,108,2927)" index="1027726" value="1"/>
  <variable name="X(48,50,2870)" index="1031329" value="1"/>
  <variable name="X(48,109,887)" index="1033006" value="1"/>
  <variable name="X(49,50,2927)" index="1038706" value="1"/>
  <variable name="X(49,110,3049)" index="1042488" value="1"/>
  <variable name="X(50,15,2927)" index="1046026" value="1"/>
  <variable name="X(50,19,2563)" index="1049322" value="1"/>
  <variable name="X(50,33,152)" index="1050571" value="1"/>
  <variable name="X(50,43,1962)" index="1056041" value="1"/>
  <variable name="X(50,48,887)" index="1058626" value="1"/>
  <variable name="X(50,49,3049)" index="1064448" value="1"/>
  <variable name="X(50,51,2870)" index="1067929" value="1"/>
  <variable name="X(50,111,2629)" index="1071348" value="1"/>
  <variable name="X(51,50,3049)" index="1075428" value="1"/>
  <variable name="X(51,112,2870)" index="1078909" value="1"/>
  <variable name="X(52,38,3097)" index="1082796" value="1"/>
  <variable name="X(52,113,3292)" index="1086651" value="1"/>
  <variable name="X(53,36,3136)" index="1090155" value="1"/>
  <variable name="X(53,114,3653)" index="1094332" value="1"/>
  <variable name="X(54,16,3238)" index="1097577" value="1"/>
  <variable name="X(54,115,113)" index="1098112" value="1"/>
  <variable name="X(55,41,3292)" index="1104951" value="1"/>
  <variable name="X(55,116,234)" index="1105553" value="1"/>
  <variable name="X(56,5,1622)" index="1110601" value="1"/>
  <variable name="X(56,6,1686)" index="1114325" value="1"/>
  <variable name="X(56,7,2647)" index="1118946" value="1"/>
  <variable name="X(56,11,679)" index="1120638" value="1"/>
  <variable name="X(56,12,431)" index="1124050" value="1"/>
  <variable name="X(56,15,674)" index="1127953" value="1"/>
  <variable name="X(56,19,2179)" index="1133118" value="1"/>
  <variable name="X(56,28,3568)" index="1138167" value="1"/>
  <variable name="X(56,29,1588)" index="1139847" value="1"/>
  <variable name="X(56,38,1316)" index="1143235" value="1"/>
  <variable name="X(56,45,344)" index="1145923" value="1"/>
  <variable name="X(56,60,2519)" index="1151758" value="1"/>
  <variable name="X(56,117,2755)" index="1155654" value="1"/>
  <variable name="X(57,18,2298)" index="1158857" value="1"/>
  <variable name="X(57,36,3396)" index="1163615" value="1"/>
  <variable name="X(57,38,1057)" index="1164936" value="1"/>
  <variable name="X(57,39,1898)" index="1169437" value="1"/>
  <variable name="X(57,118,56)" index="1171255" value="1"/>
  <variable name="X(58,15,3455)" index="1178314" value="1"/>
  <variable name="X(58,119,1857)" index="1180376" value="1"/>
  <variable name="X(59,10,1930)" index="1184109" value="1"/>
  <variable name="X(59,38,543)" index="1186382" value="1"/>
  <variable name="X(59,120,3238)" index="1192737" value="1"/>
  <variable name="X(60,30,3270)" index="1196429" value="1"/>
  <variable name="X(60,40,819)" index="1197638" value="1"/>
  <variable name="X(60,41,3581)" index="1204060" value="1"/>
  <variable name="X(60,56,3568)" index="1207707" value="1"/>
  <variable name="X(60,121,2519)" index="1210318" value="1"/>
  <variable name="X(61,47,3653)" index="1215112" value="1"/>
  <variable name="X(61,122,60)" index="1215179" value="1"/>
  <variable name="C(56,36)" index="1219044" value="1"/>
  <variable name="C(56,57)" index="1219045" value="2"/>
  <variable name="C(60,61)" index="1219063" value="1"/>
  <variable name="C(64,5)" index="1219082" value="1"/>
  <variable name="C(113,16)" index="1219328" value="1"/>
  <variable name="C(113,54)" index="1219329" value="2"/>
  <variable name="C(152,36)" index="1219523" value="1"/>
  <variable name="C(152,15)" index="1219524" value="2"/>
  <variable name="C(152,50)" index="1219525" value="3"/>
  <variable name="C(152,33)" index="1219526" value="4"/>
  <variable name="C(234,38)" index="1219892" value="1"/>
  <variable name="C(234,41)" index="1219893" value="2"/>
  <variable name="C(234,55)" index="1219894" value="3"/>
  <variable name="C(285,11)" index="1220094" value="1"/>
  <variable name="C(285,46)" index="1220095" value="2"/>
  <variable name="C(344,56)" index="1220344" value="1"/>
  <variable name="C(344,45)" index="1220345" value="2"/>
  <variable name="C(370,46)" index="1220454" value="1"/>
  <variable name="C(370,11)" index="1220455" value="2"/>
  <variable name="C(431,5)" index="1220712" value="1"/>
  <variable name="C(431,56)" index="1220713" value="2"/>
  <variable name="C(431,12)" index="1220714" value="3"/>
  <variable name="C(501,22)" index="1221092" value="1"/>
  <variable name="C(502,23)" index="1221094" value="1"/>
  <variable name="C(543,59)" index="1221357" value="1"/>
  <variable name="C(543,38)" index="1221358" value="2"/>
  <variable name="C(543,36)" index="1221359" value="3"/>
  <variable name="C(543,3)" index="1221360" value="4"/>
  <variable name="C(674,56)" index="1221964" value="1"/>
  <variable name="C(674,15)" index="1221965" value="2"/>
  <variable name="C(679,11)" index="1221985" value="1"/>
  <variable name="C(679,22)" index="1221986" value="2"/>
  <variable name="C(679,20)" index="1221987" value="3"/>
  <variable name="C(729,21)" index="1222214" value="1"/>
  <variable name="C(729,22)" index="1222215" value="2"/>
  <variable name="C(729,23)" index="1222216" value="3"/>
  <variable name="C(729,9)" index="1222217" value="4"/>
  <variable name="C(819,30)" index="1222745" value="1"/>
  <variable name="C(819,60)" index="1222746" value="2"/>
  <variable name="C(819,40)" index="1222747" value="3"/>
  <variable name="C(887,48)" index="1223016" value="1"/>
  <variable name="C(984,35)" index="1223432" value="1"/>
  <variable name="C(984,36)" index="1223433" value="2"/>
  <variable name="C(984,38)" index="1223434" value="3"/>
  <variable name="C(984,25)" index="1223435" value="4"/>
  <variable name="C(1057,38)" index="1223778" value="1"/>
  <variable name="C(1181,22)" index="1224323" value="1"/>
  <variable name="C(1181,19)" index="1224324" value="2"/>
  <variable name="C(1181,42)" index="1224325" value="3"/>
  <variable name="C(1244,11)" index="1224657" value="1"/>
  <variable name="C(1316,56)" index="1224989" value="1"/>
  <variable name="C(1316,38)" index="1224990" value="2"/>
  <variable name="C(1401,22)" index="1225438" value="1"/>
  <variable name="C(1401,21)" index="1225439" value="2"/>
  <variable name="C(1499,38)" index="1225916" value="1"/>
  <variable name="C(1499,40)" index="1225917" value="2"/>
  <variable name="C(1504,38)" index="1225939" value="1"/>
  <variable name="C(1504,4)" index="1225940" value="2"/>
  <variable name="C(1588,15)" index="1226325" value="1"/>
  <variable name="C(1588,56)" index="1226326" value="2"/>
  <variable name="C(1588,29)" index="1226327" value="3"/>
  <variable name="C(1622,56)" index="1226467" value="1"/>
  <variable name="C(1622,5)" index="1226468" value="2"/>
  <variable name="C(1622,2)" index="1226469" value="3"/>
  <variable name="C(1686,56)" index="1226737" value="1"/>
  <variable name="C(1686,6)" index="1226738" value="2"/>
  <variable name="C(1857,30)" index="1227517" value="1"/>
  <variable name="C(1857,15)" index="1227518" value="2"/>
  <variable name="C(1857,58)" index="1227519" value="3"/>
  <variable name="C(1898,18)" index="1227717" value="1"/>
  <variable name="C(1898,57)" index="1227718" value="2"/>
  <variable name="C(1898,39)" index="1227719" value="3"/>
  <variable name="C(1930,10)" index="1227883" value="1"/>
  <variable name="C(1962,50)" index="1228037" value="1"/>
  <variable name="C(1962,43)" index="1228038" value="2"/>
  <variable name="C(2012,32)" index="1228316" value="1"/>
  <variable name="C(2016,35)" index="1228332" value="1"/>
  <variable name="C(2179,38)" index="1229014" value="1"/>
  <variable name="C(2179,56)" index="1229015" value="2"/>
  <variable name="C(2179,19)" index="1229016" value="3"/>
  <variable name="C(2187,35)" index="1229053" value="1"/>
  <variable name="C(2187,15)" index="1229054" value="2"/>
  <variable name="C(2187,27)" index="1229055" value="3"/>
  <variable name="C(2191,30)" index="1229071" value="1"/>
  <variable name="C(2191,31)" index="1229072" value="2"/>
  <variable name="C(2298,57)" index="1229475" value="0.99999999999999911"/>
  <variable name="C(2298,18)" index="1229476" value="1.9999999999999991"/>
  <variable name="C(2306,38)" index="1229514" value="1"/>
  <variable name="C(2306,26)" index="1229515" value="2"/>
  <variable name="C(2379,38)" index="1229834" value="1"/>
  <variable name="C(2519,19)" index="1230464" value="1"/>
  <variable name="C(2519,56)" index="1230465" value="2"/>
  <variable name="C(2519,60)" index="1230466" value="3"/>
  <variable name="C(2563,43)" index="1230684" value="1"/>
  <variable name="C(2563,50)" index="1230685" value="2"/>
  <variable name="C(2563,19)" index="1230686" value="3"/>
  <variable name="C(2563,44)" index="1230687" value="4"/>
  <variable name="C(2629,19)" index="1230993" value="1"/>
  <variable name="C(2629,50)" index="1230994" value="2"/>
  <variable name="C(2647,56)" index="1231075" value="1"/>
  <variable name="C(2647,7)" index="1231076" value="2"/>
  <variable name="C(2648,11)" index="1231078" value="1"/>
  <variable name="C(2648,5)" index="1231079" value="2"/>
  <variable name="C(2648,8)" index="1231080" value="3"/>
  <variable name="C(2654,14)" index="1231105" value="1"/>
  <variable name="C(2755,7)" index="1231559" value="1"/>
  <variable name="C(2755,56)" index="1231560" value="2"/>
  <variable name="C(2833,13)" index="1231920" value="1"/>
  <variable name="C(2870,50)" index="1232088" value="1"/>
  <variable name="C(2870,51)" index="1232089" value="2"/>
  <variable name="C(2927,50)" index="1232373" value="1"/>
  <variable name="C(2927,15)" index="1232374" value="2"/>
  <variable name="C(2927,47)" index="1232375" value="3"/>
  <variable name="C(2964,22)" index="1232533" value="1"/>
  <variable name="C(2964,24)" index="1232534" value="2"/>
  <variable name="C(3049,50)" index="1232909" value="1"/>
  <variable name="C(3049,49)" index="1232910" value="2"/>
  <variable name="C(3097,38)" index="1233135" value="1"/>
  <variable name="C(3097,37)" index="1233136" value="2"/>
  <variable name="C(3136,36)" index="1233314" value="1"/>
  <variable name="C(3136,16)" index="1233315" value="2"/>
  <variable name="C(3181,36)" index="1233523" value="1"/>
  <variable name="C(3181,1)" index="1233524" value="2"/>
  <variable name="C(3214,35)" index="1233700" value="1"/>
  <variable name="C(3214,32)" index="1233701" value="2"/>
  <variable name="C(3214,34)" index="1233702" value="3"/>
  <variable name="C(3238,16)" index="1233813" value="1"/>
  <variable name="C(3238,38)" index="1233814" value="2"/>
  <variable name="C(3238,59)" index="1233815" value="3"/>
  <variable name="C(3270,60)" index="1233989" value="1"/>
  <variable name="C(3270,30)" index="1233990" value="2"/>
  <variable name="C(3292,41)" index="1234106" value="1"/>
  <variable name="C(3292,38)" index="1234107" value="2"/>
  <variable name="C(3292,52)" index="1234108" value="3"/>
  <variable name="C(3377,35)" index="1234412" value="1"/>
  <variable name="C(3377,17)" index="1234413" value="2"/>
  <variable name="C(3396,36)" index="1234494" value="1"/>
  <variable name="C(3455,15)" index="1234744" value="1"/>
  <variable name="C(3455,35)" index="1234745" value="2"/>
  <variable name="C(3568,56)" index="1235236" value="1"/>
  <variable name="C(3568,28)" index="1235237" value="2"/>
  <variable name="C(3581,41)" index="1235284" value="1"/>
  <variable name="C(3653,47)" index="1235645" value="1"/>
  <variable name="C(3653,15)" index="1235646" value="2"/>
  <variable name="C(3653,36)" index="1235647" value="3"/>
  <variable name="C(3653,53)" index="1235648" value="4"/>
 </variables>
</CPLEXSolution>
